benchmarks_vrp/CMT5/fixed_c_size/CMT5_10.vrp
NAME: CMT5_10
TYPE: CVRP
COMMENT: 1291.29 - Cluster Nr.10
DIMENSION: 16
CAPACITY: 200
EDGE_WEIGHT_TYPE: EUC_2D
NODE_COORD_TYPE: TWOD_COORDS
NODE_COORD_SECTION: 
16 51 21
4 35 35
2 50 15
10 53 12
7 49 11
14 54 10
5 48 21
1 46 10
8 42 7
9 44 17
15 45 20
3 44 13
6 45 10
11 46 13
13 47 16
12 55 5
DEPOT_SECTION: 
4
-1
DEMAND_SECTION: 
10 6
11 8
2 19
1 23
6 18
12 29
14 12
5 20
4 0
7 18
15 11
13 25
3 28
8 5
9 9
16 5
EOF
