benchmarks_vrp/CMT5/fixed_c_size/CMT5_10.tour
NAME: CMT5_10 solution
TYPE: TOUR
TOUR_SECTION:
4 13 2 10 14 12 7 1 6 8 3 11 9 -1
4 15 5 16 -1
-1
EOF